(declare-const BAV1 Bool)
(declare-const BAV2 Bool)
(declare-const BAV3 Bool)
(declare-const GEN2 Real)
(declare-const GEN1 Real)
(set-option :auto-config true)
(set-option :produce-models true)
(declare-const a Int)
(declare-const b Int)
(declare-const c Int)
(declare-const d Real)
(declare-const e Real)
(assert (> e (+ (to_real (+ a b)) GEN1)))
(assert (= d (+ (to_real c) GEN2)))
(assert (> a b))
(assert (= BAV1 (> e (+ (to_real (+ a b)) GEN1))))
(assert (= BAV2 (= d (+ (to_real c) GEN2))))
(assert (= BAV3 (> a b)))
(check-sat)
(get-model)